c Output_time 26.03.2020 18:13:21_+0100 1585242801915578756
c ** Program information **
c program_name                          "QBRG_debug"
c version                               "0.3.20"
c date                                  "25.3.2020"
c gid_id                                "673970833836058123f633335630c185360d632e"
c author                                "Oliver Kullmann"
c url                                   "https://github.com/OKullmann/oklibrary/blob/master/Satisfiability/Transformers/Generators/Random/QBRG.cpp"
c ** Machine information **
c machine_name                          "chyna-Lenovo-G50-70"
c bogomips                              3791.08
c ** Compilation information **
c compiler_version                      "g++ 7.5.0"
c compilation_date                      "Mar_26_2020 11:16:30"
c compilation_options                   "--std=c++17 -pedantic -fmax-errors=5 -Wall -Wextra -g -D_GLIBCXX_DEBUG"
c NDEBUG                                0
c OPTIMIZE                              0
c ** Parameters **
c command-line                          "./QBRG_debug" "e40 a40 40" "440*1,1|2-2,1|3-3,1" "" "1,t" ""
c output                                "QuBlRaGe_120_440_1585242801902340366.qdimacs"
c options                               "filtered,renamed"
c num_quantifier_blocks                 3
c  quantifier_blocks                    1:e1-40 2:a41-80 3:e81-120
c num_clause-blocks                     1
c  clause-blocks                        440 * {1-40,1,1/2} | {41-80,1,1/2} | {81-120,1,1/2}
c num_e-seeds                           30+2=32
c  e-seeds                              1 0 1 0 4 120 2 40 1 40 0 40 1 440 3 1 1 1 1 2 2 2 1 1 2 3 3 1 1 2 1 1585242801902339648
p cnf 120 440
e 1 2 3 4 5 6 7 8 9 10 11 12 13 14 15 16 17 18 19 20 21 22 23 24 25 26 27 28 29 30 31 32 33 34 35 36 37 38 39 40 0
a 41 42 43 44 45 46 47 48 49 50 51 52 53 54 55 56 57 58 59 60 61 62 63 64 65 66 67 68 69 70 71 72 73 74 75 76 77 78 79 80 0
e 81 82 83 84 85 86 87 88 89 90 91 92 93 94 95 96 97 98 99 100 101 102 103 104 105 106 107 108 109 110 111 112 113 114 115 116 117 118 119 120 0
35 -54 -81 0
-28 54 -81 0
-20 71 -81 0
36 54 81 0
-27 -67 81 0
16 70 81 0
-23 -71 81 0
-31 -71 81 0
-27 73 81 0
-30 -45 -82 0
7 -50 -82 0
-16 -51 -82 0
14 68 -82 0
2 75 -82 0
-19 80 -82 0
28 44 82 0
-10 -48 82 0
-1 -55 82 0
16 62 82 0
-40 78 82 0
-5 44 -83 0
-38 57 -83 0
17 62 -83 0
-17 68 -83 0
33 -78 -83 0
14 48 83 0
38 -52 83 0
-40 -53 83 0
5 53 83 0
-38 77 83 0
26 49 -84 0
11 -56 -84 0
19 61 -84 0
-14 46 -85 0
6 -47 -85 0
2 56 -85 0
12 -67 -85 0
16 -67 -85 0
-27 -73 -85 0
37 44 85 0
34 -54 85 0
-39 -59 85 0
-2 74 85 0
-16 -50 -86 0
-7 71 -86 0
10 72 -86 0
-10 -41 86 0
1 56 86 0
25 60 86 0
26 42 -87 0
32 44 -87 0
-29 50 -87 0
13 -52 -87 0
-7 -60 -87 0
-4 61 -87 0
-4 -43 87 0
33 50 87 0
38 50 87 0
-5 -57 87 0
-16 58 87 0
22 -59 87 0
-31 -66 87 0
-28 73 87 0
-7 -46 -88 0
-37 -54 -88 0
34 65 -88 0
-28 66 -88 0
-13 67 -88 0
21 70 -88 0
-16 74 -88 0
8 -79 -88 0
-15 48 88 0
-14 53 88 0
5 55 88 0
26 -59 88 0
28 79 88 0
32 -46 -89 0
-26 48 -89 0
-29 -51 -89 0
-2 -56 -89 0
21 -60 -89 0
-12 -61 -89 0
17 -75 -89 0
30 78 -89 0
12 50 89 0
36 53 89 0
13 -60 89 0
-26 60 89 0
25 62 89 0
-12 -65 89 0
20 77 89 0
4 -80 89 0
39 -44 -90 0
26 -55 -90 0
-17 58 -90 0
2 -69 -90 0
7 70 -90 0
-35 79 -90 0
-33 -45 90 0
34 64 90 0
-12 73 90 0
-3 -75 90 0
-14 44 -91 0
-16 -52 -91 0
-25 55 -91 0
34 68 -91 0
-32 -54 91 0
-34 54 91 0
-27 -58 91 0
-29 -41 -92 0
1 -43 -92 0
-28 46 -92 0
-11 -47 -92 0
5 52 -92 0
-5 53 -92 0
-7 -57 -92 0
31 64 -92 0
25 -65 -92 0
-26 70 -92 0
-4 -76 -92 0
-32 -43 92 0
-24 -48 92 0
-27 -53 92 0
1 74 92 0
12 77 92 0
6 78 92 0
-13 45 -93 0
13 -47 -93 0
22 -55 -93 0
35 55 -93 0
-20 -58 -93 0
-15 64 -93 0
-19 -65 -93 0
32 -69 -93 0
1 72 -93 0
-29 72 -93 0
11 78 -93 0
23 41 93 0
-12 -43 93 0
9 -46 93 0
-25 -52 93 0
33 -52 93 0
-8 53 93 0
-35 58 93 0
40 -73 93 0
-1 -44 -94 0
19 -55 -94 0
13 -63 -94 0
26 -71 -94 0
36 73 -94 0
-2 76 -94 0
8 43 94 0
-24 69 94 0
28 72 94 0
-5 -79 94 0
-32 -43 -95 0
-37 54 -95 0
10 -75 -95 0
38 -44 95 0
13 -49 95 0
-23 74 95 0
1 -76 95 0
18 -55 -96 0
-11 59 -96 0
-23 -70 -96 0
-32 72 -96 0
9 46 96 0
-5 61 96 0
20 -66 96 0
-30 66 96 0
-36 80 96 0
-5 -50 -97 0
33 -60 -97 0
13 -67 -97 0
-4 -69 -97 0
6 -78 -97 0
-26 -48 97 0
-10 -58 97 0
-6 58 97 0
14 -64 97 0
-5 65 97 0
5 69 97 0
25 72 97 0
-23 -73 97 0
6 80 97 0
-38 -52 -98 0
-31 -55 -98 0
9 72 -98 0
-29 -74 -98 0
-34 44 98 0
27 -46 98 0
-32 47 98 0
9 52 98 0
-33 -61 98 0
-32 74 98 0
-22 -44 -99 0
-9 54 -99 0
-37 -72 -99 0
-5 72 -99 0
29 73 -99 0
37 -75 -99 0
-34 50 99 0
-3 54 99 0
18 55 99 0
4 59 99 0
8 -61 99 0
33 -63 99 0
-27 73 99 0
33 56 -100 0
-2 -79 -100 0
23 -41 100 0
35 -46 100 0
-27 -55 100 0
-12 -67 100 0
-10 74 100 0
15 76 100 0
-21 76 100 0
-9 -43 -101 0
-31 61 -101 0
11 63 -101 0
-10 72 -101 0
25 -73 -101 0
9 -80 -101 0
3 -65 101 0
1 73 101 0
12 -74 101 0
3 44 -102 0
17 46 -102 0
-1 58 -102 0
-22 58 -102 0
-34 -66 -102 0
10 -72 -102 0
1 -73 -102 0
-40 -74 -102 0
-11 50 102 0
18 56 102 0
-3 -69 102 0
-5 73 102 0
24 47 -103 0
-20 -49 -103 0
7 69 -103 0
37 -50 103 0
37 -54 103 0
-6 -55 103 0
36 -56 103 0
-32 62 103 0
13 63 103 0
-27 -53 -104 0
28 53 -104 0
29 53 -104 0
40 55 -104 0
-28 60 -104 0
-6 -67 104 0
-38 74 104 0
-31 -78 104 0
-1 -79 104 0
28 -79 104 0
-25 68 -105 0
14 -73 -105 0
-5 -76 -105 0
24 -79 -105 0
-1 44 105 0
-31 -53 105 0
-24 -54 105 0
-18 -60 105 0
-2 71 105 0
9 73 105 0
-38 -78 105 0
15 -45 -106 0
28 -63 -106 0
-3 66 -106 0
-30 44 106 0
-23 47 106 0
1 -49 106 0
17 49 106 0
-2 -53 106 0
11 -72 106 0
-23 -79 106 0
-8 -41 -107 0
19 -48 -107 0
6 -49 -107 0
-3 -54 -107 0
17 54 -107 0
-28 65 -107 0
-40 66 -107 0
-10 -69 -107 0
3 -73 -107 0
31 77 -107 0
-17 -53 107 0
-17 -64 107 0
-4 65 107 0
40 -74 107 0
22 -48 -108 0
40 -51 -108 0
13 -58 -108 0
-2 60 -108 0
-25 68 -108 0
4 45 108 0
-14 -46 108 0
-2 -61 108 0
-31 -65 108 0
-12 -68 108 0
10 70 108 0
-5 73 108 0
-19 -79 108 0
-12 -53 -109 0
-5 -59 -109 0
-30 -62 -109 0
5 -71 -109 0
-35 72 -109 0
-23 73 -109 0
-26 74 -109 0
7 44 109 0
-26 -47 109 0
-35 48 109 0
26 -61 109 0
-4 -62 109 0
28 -75 109 0
-31 -53 -110 0
-12 -72 -110 0
14 -77 -110 0
-39 49 110 0
36 -54 110 0
16 -73 110 0
25 -80 110 0
-6 -51 -111 0
-3 -60 -111 0
-15 -66 -111 0
-37 47 111 0
15 -57 111 0
19 57 111 0
39 43 -112 0
-39 58 -112 0
28 -69 -112 0
29 71 -112 0
-34 72 -112 0
-11 79 -112 0
-36 46 112 0
-7 60 112 0
-23 68 112 0
-33 -49 -113 0
-10 53 -113 0
16 53 -113 0
-38 56 -113 0
-26 -67 -113 0
33 -68 -113 0
15 -75 -113 0
-34 79 -113 0
-22 -53 113 0
-20 -45 -114 0
17 46 -114 0
-1 -53 -114 0
-19 55 -114 0
-18 59 -114 0
12 -41 114 0
-10 -50 114 0
1 51 114 0
22 56 114 0
-25 -72 114 0
-12 77 114 0
-37 -41 -115 0
-34 -46 -115 0
-29 -51 -115 0
-2 57 -115 0
16 58 -115 0
13 64 -115 0
22 -80 -115 0
-9 49 115 0
-6 -61 115 0
-21 68 115 0
-10 -80 115 0
-15 80 115 0
34 -48 -116 0
18 66 -116 0
-38 -77 -116 0
-19 -78 -116 0
-6 -44 116 0
-36 53 116 0
-29 55 116 0
-38 -56 116 0
23 -59 116 0
35 -61 116 0
-15 -63 116 0
28 -79 116 0
29 -80 116 0
-28 -41 -117 0
-27 54 -117 0
-38 57 -117 0
-29 42 117 0
-28 -47 117 0
35 -55 117 0
-36 -55 117 0
19 -72 117 0
23 -76 117 0
6 -53 -118 0
-19 53 -118 0
-5 -56 -118 0
-16 65 -118 0
8 -66 -118 0
-34 -68 -118 0
13 -72 -118 0
-2 -65 118 0
7 -73 118 0
-12 -77 118 0
37 -79 118 0
-6 43 -119 0
-24 44 -119 0
12 48 -119 0
10 54 -119 0
-34 54 -119 0
14 56 -119 0
-2 -60 -119 0
-38 -60 -119 0
-27 61 -119 0
-2 -62 -119 0
-19 62 -119 0
38 64 -119 0
25 -65 -119 0
-19 77 -119 0
27 80 -119 0
33 80 -119 0
36 -57 119 0
-13 66 119 0
-14 68 119 0
25 73 119 0
-19 47 -120 0
-15 51 -120 0
-28 -57 -120 0
-14 -63 -120 0
-2 65 -120 0
35 -70 -120 0
-22 78 -120 0
-8 57 120 0
-17 59 120 0
-6 -62 120 0
-36 68 120 0
-2 -73 120 0
32 -75 120 0
4 -77 120 0
9 79 120 0
